30 435 15
0 1 3.00
0 2 1.00
0 3 30.00
0 4 1.00
0 5 30.00
0 6 1.00
0 7 30.00
0 8 1.00
0 9 30.00
0 10 1.00
0 11 30.00
0 12 1.00
0 13 30.00
0 14 1.00
0 15 30.00
0 16 1.00
0 17 30.00
0 18 1.00
0 19 30.00
0 20 1.00
0 21 30.00
0 22 1.00
0 23 30.00
0 24 1.00
0 25 30.00
0 26 1.00
0 27 30.00
0 28 1.00
0 29 3.00
1 2 3.00
1 3 30.00
1 4 30.00
1 5 30.00
1 6 30.00
1 7 30.00
1 8 30.00
1 9 30.00
1 10 30.00
1 11 30.00
1 12 30.00
1 13 30.00
1 14 30.00
1 15 30.00
1 16 30.00
1 17 30.00
1 18 30.00
1 19 30.00
1 20 30.00
1 21 30.00
1 22 30.00
1 23 30.00
1 24 30.00
1 25 30.00
1 26 30.00
1 27 30.00
1 28 30.00
1 29 30.00
2 3 3.00
2 4 1.00
2 5 30.00
2 6 1.00
2 7 30.00
2 8 1.00
2 9 30.00
2 10 1.00
2 11 30.00
2 12 1.00
2 13 30.00
2 14 1.00
2 15 30.00
2 16 1.00
2 17 30.00
2 18 1.00
2 19 30.00
2 20 1.00
2 21 30.00
2 22 1.00
2 23 30.00
2 24 1.00
2 25 30.00
2 26 1.00
2 27 30.00
2 28 1.00
2 29 30.00
3 4 3.00
3 5 30.00
3 6 30.00
3 7 30.00
3 8 30.00
3 9 30.00
3 10 30.00
3 11 30.00
3 12 30.00
3 13 30.00
3 14 30.00
3 15 30.00
3 16 30.00
3 17 30.00
3 18 30.00
3 19 30.00
3 20 30.00
3 21 30.00
3 22 30.00
3 23 30.00
3 24 30.00
3 25 30.00
3 26 30.00
3 27 30.00
3 28 30.00
3 29 30.00
4 5 3.00
4 6 1.00
4 7 30.00
4 8 1.00
4 9 30.00
4 10 1.00
4 11 30.00
4 12 1.00
4 13 30.00
4 14 1.00
4 15 30.00
4 16 1.00
4 17 30.00
4 18 1.00
4 19 30.00
4 20 1.00
4 21 30.00
4 22 1.00
4 23 30.00
4 24 1.00
4 25 30.00
4 26 1.00
4 27 30.00
4 28 1.00
4 29 30.00
5 6 3.00
5 7 30.00
5 8 30.00
5 9 30.00
5 10 30.00
5 11 30.00
5 12 30.00
5 13 30.00
5 14 30.00
5 15 30.00
5 16 30.00
5 17 30.00
5 18 30.00
5 19 30.00
5 20 30.00
5 21 30.00
5 22 30.00
5 23 30.00
5 24 30.00
5 25 30.00
5 26 30.00
5 27 30.00
5 28 30.00
5 29 30.00
6 7 3.00
6 8 1.00
6 9 30.00
6 10 1.00
6 11 30.00
6 12 1.00
6 13 30.00
6 14 1.00
6 15 30.00
6 16 1.00
6 17 30.00
6 18 1.00
6 19 30.00
6 20 1.00
6 21 30.00
6 22 1.00
6 23 30.00
6 24 1.00
6 25 30.00
6 26 1.00
6 27 30.00
6 28 1.00
6 29 30.00
7 8 3.00
7 9 30.00
7 10 30.00
7 11 30.00
7 12 30.00
7 13 30.00
7 14 30.00
7 15 30.00
7 16 30.00
7 17 30.00
7 18 30.00
7 19 30.00
7 20 30.00
7 21 30.00
7 22 30.00
7 23 30.00
7 24 30.00
7 25 30.00
7 26 30.00
7 27 30.00
7 28 30.00
7 29 30.00
8 9 3.00
8 10 1.00
8 11 30.00
8 12 1.00
8 13 30.00
8 14 1.00
8 15 30.00
8 16 1.00
8 17 30.00
8 18 1.00
8 19 30.00
8 20 1.00
8 21 30.00
8 22 1.00
8 23 30.00
8 24 1.00
8 25 30.00
8 26 1.00
8 27 30.00
8 28 1.00
8 29 30.00
9 10 3.00
9 11 30.00
9 12 30.00
9 13 30.00
9 14 30.00
9 15 30.00
9 16 30.00
9 17 30.00
9 18 30.00
9 19 30.00
9 20 30.00
9 21 30.00
9 22 30.00
9 23 30.00
9 24 30.00
9 25 30.00
9 26 30.00
9 27 30.00
9 28 30.00
9 29 30.00
10 11 3.00
10 12 1.00
10 13 30.00
10 14 1.00
10 15 30.00
10 16 1.00
10 17 30.00
10 18 1.00
10 19 30.00
10 20 1.00
10 21 30.00
10 22 1.00
10 23 30.00
10 24 1.00
10 25 30.00
10 26 1.00
10 27 30.00
10 28 1.00
10 29 30.00
11 12 3.00
11 13 30.00
11 14 30.00
11 15 30.00
11 16 30.00
11 17 30.00
11 18 30.00
11 19 30.00
11 20 30.00
11 21 30.00
11 22 30.00
11 23 30.00
11 24 30.00
11 25 30.00
11 26 30.00
11 27 30.00
11 28 30.00
11 29 30.00
12 13 3.00
12 14 1.00
12 15 30.00
12 16 1.00
12 17 30.00
12 18 1.00
12 19 30.00
12 20 1.00
12 21 30.00
12 22 1.00
12 23 30.00
12 24 1.00
12 25 30.00
12 26 1.00
12 27 30.00
12 28 1.00
12 29 30.00
13 14 3.00
13 15 30.00
13 16 30.00
13 17 30.00
13 18 30.00
13 19 30.00
13 20 30.00
13 21 30.00
13 22 30.00
13 23 30.00
13 24 30.00
13 25 30.00
13 26 30.00
13 27 30.00
13 28 30.00
13 29 30.00
14 15 3.00
14 16 1.00
14 17 30.00
14 18 1.00
14 19 30.00
14 20 1.00
14 21 30.00
14 22 1.00
14 23 30.00
14 24 1.00
14 25 30.00
14 26 1.00
14 27 30.00
14 28 1.00
14 29 30.00
15 16 3.00
15 17 30.00
15 18 30.00
15 19 30.00
15 20 30.00
15 21 30.00
15 22 30.00
15 23 30.00
15 24 30.00
15 25 30.00
15 26 30.00
15 27 30.00
15 28 30.00
15 29 30.00
16 17 3.00
16 18 1.00
16 19 30.00
16 20 1.00
16 21 30.00
16 22 1.00
16 23 30.00
16 24 1.00
16 25 30.00
16 26 1.00
16 27 30.00
16 28 1.00
16 29 30.00
17 18 3.00
17 19 30.00
17 20 30.00
17 21 30.00
17 22 30.00
17 23 30.00
17 24 30.00
17 25 30.00
17 26 30.00
17 27 30.00
17 28 30.00
17 29 30.00
18 19 3.00
18 20 1.00
18 21 30.00
18 22 1.00
18 23 30.00
18 24 1.00
18 25 30.00
18 26 1.00
18 27 30.00
18 28 1.00
18 29 30.00
19 20 3.00
19 21 30.00
19 22 30.00
19 23 30.00
19 24 30.00
19 25 30.00
19 26 30.00
19 27 30.00
19 28 30.00
19 29 30.00
20 21 3.00
20 22 1.00
20 23 30.00
20 24 1.00
20 25 30.00
20 26 1.00
20 27 30.00
20 28 1.00
20 29 30.00
21 22 3.00
21 23 30.00
21 24 30.00
21 25 30.00
21 26 30.00
21 27 30.00
21 28 30.00
21 29 30.00
22 23 3.00
22 24 1.00
22 25 30.00
22 26 1.00
22 27 30.00
22 28 1.00
22 29 30.00
23 24 3.00
23 25 30.00
23 26 30.00
23 27 30.00
23 28 30.00
23 29 30.00
24 25 3.00
24 26 1.00
24 27 30.00
24 28 1.00
24 29 30.00
25 26 3.00
25 27 30.00
25 28 30.00
25 29 30.00
26 27 3.00
26 28 1.00
26 29 30.00
27 28 3.00
27 29 30.00
28 29 3.00
0
2
4
6
8
10
12
14
16
18
20
22
24
26
28
